(set-logic QF_BV)

(declare-const __ESBMC_ptr_obj_start_0 (_ BitVec 64))

(declare-const __ESBMC_ptr_obj_end_0 (_ BitVec 64))

(declare-const __ESBMC_ptr_obj_start_1 (_ BitVec 64))

(declare-const __ESBMC_ptr_obj_end_1 (_ BitVec 64))

(declare-const |smt_conv::__ESBMC_ptr_addr_range_0..start0| (_ BitVec 64))

(declare-const |smt_conv::__ESBMC_ptr_addr_range_0..end0| (_ BitVec 64))

(declare-const |smt_conv::__ESBMC_ptr_addr_range_1..start0| (_ BitVec 64))

(declare-const |smt_conv::__ESBMC_ptr_addr_range_1..end0| (_ BitVec 64))

(declare-const |smt_conv::smt_conv::collate_array_vals::3..start0| (_ BitVec 64))

(declare-const |smt_conv::smt_conv::collate_array_vals::3..end0| (_ BitVec 64))

(declare-const |smt_conv::smt_conv::collate_array_vals::4..start0| (_ BitVec 64))

(declare-const |smt_conv::smt_conv::collate_array_vals::4..end0| (_ BitVec 64))

(declare-const |smt_conv::smt_conv::collate_array_vals::7..start0| (_ BitVec 64))

(declare-const |smt_conv::smt_conv::collate_array_vals::7..end0| (_ BitVec 64))

(declare-const |c:@F@main::$tmp::return_value$___VERIFIER_nondet_uint$1?1!0&0#1| (_ BitVec 32))

(declare-const |nondet$symex::nondet99| (_ BitVec 32))

(declare-const |c:simple_2-1.c@432@F@main@x?1!0&0#1| (_ BitVec 32))

(declare-const |goto_symex::guard?0!0&0#1| (_ BitVec 1))

(declare-const |c:simple_2-1.c@432@F@main@x?1!0&0#2| (_ BitVec 32))

(declare-const |goto_symex::guard?0!0&0#2| (_ BitVec 1))

(declare-const |c:simple_2-1.c@432@F@main@x?1!0&0#3| (_ BitVec 32))

(declare-const |goto_symex::guard?0!0&0#3| (_ BitVec 1))

(declare-const |c:simple_2-1.c@432@F@main@x?1!0&0#4| (_ BitVec 32))

(declare-const |goto_symex::guard?0!0&0#4| (_ BitVec 1))

(declare-const |c:simple_2-1.c@432@F@main@x?1!0&0#5| (_ BitVec 32))

(declare-const |goto_symex::guard?0!0&0#5| (_ BitVec 1))

(declare-const |c:simple_2-1.c@432@F@main@x?1!0&0#6| (_ BitVec 32))

(declare-const |goto_symex::guard?0!0&0#6| (_ BitVec 1))

(declare-const |c:simple_2-1.c@432@F@main@x?1!0&0#7| (_ BitVec 32))

(declare-const |goto_symex::guard?0!0&0#7| (_ BitVec 1))

(declare-const |c:simple_2-1.c@432@F@main@x?1!0&0#8| (_ BitVec 32))

(declare-const |goto_symex::guard?0!0&0#8| (_ BitVec 1))

(declare-const |c:simple_2-1.c@432@F@main@x?1!0&0#9| (_ BitVec 32))

(declare-const |goto_symex::guard?0!0&0#9| (_ BitVec 1))

(declare-const |c:simple_2-1.c@432@F@main@x?1!0&0#10| (_ BitVec 32))

(declare-const |goto_symex::guard?0!0&0#10| (_ BitVec 1))

(declare-const |c:simple_2-1.c@432@F@main@x?1!0&0#11| (_ BitVec 32))

(declare-const |goto_symex::guard?0!0&0#11| (_ BitVec 1))

(declare-const |c:simple_2-1.c@432@F@main@x?1!0&0#12| (_ BitVec 32))

(declare-const |goto_symex::guard?0!0&0#12| (_ BitVec 1))

(declare-const |c:simple_2-1.c@432@F@main@x?1!0&0#13| (_ BitVec 32))

(declare-const |goto_symex::guard?0!0&0#13| (_ BitVec 1))

(declare-const |c:simple_2-1.c@432@F@main@x?1!0&0#14| (_ BitVec 32))

(declare-const |goto_symex::guard?0!0&0#14| (_ BitVec 1))

(declare-const |c:simple_2-1.c@432@F@main@x?1!0&0#15| (_ BitVec 32))

(declare-const |goto_symex::guard?0!0&0#15| (_ BitVec 1))

(declare-const |c:simple_2-1.c@432@F@main@x?1!0&0#16| (_ BitVec 32))

(declare-const |goto_symex::guard?0!0&0#16| (_ BitVec 1))

(declare-const |c:simple_2-1.c@432@F@main@x?1!0&0#17| (_ BitVec 32))

(declare-const |goto_symex::guard?0!0&0#17| (_ BitVec 1))

(declare-const |c:simple_2-1.c@432@F@main@x?1!0&0#18| (_ BitVec 32))

(declare-const |goto_symex::guard?0!0&0#18| (_ BitVec 1))

(declare-const |c:simple_2-1.c@432@F@main@x?1!0&0#19| (_ BitVec 32))

(declare-const |goto_symex::guard?0!0&0#19| (_ BitVec 1))

(declare-const |c:simple_2-1.c@432@F@main@x?1!0&0#20| (_ BitVec 32))

(declare-const |goto_symex::guard?0!0&0#20| (_ BitVec 1))

(declare-const |c:simple_2-1.c@432@F@main@x?1!0&0#21| (_ BitVec 32))

(declare-const |goto_symex::guard?0!0&0#21| (_ BitVec 1))

(declare-const |c:simple_2-1.c@432@F@main@x?1!0&0#22| (_ BitVec 32))

(declare-const |goto_symex::guard?0!0&0#22| (_ BitVec 1))

(declare-const |c:simple_2-1.c@432@F@main@x?1!0&0#23| (_ BitVec 32))

(declare-const |goto_symex::guard?0!0&0#23| (_ BitVec 1))

(declare-const |c:simple_2-1.c@432@F@main@x?1!0&0#24| (_ BitVec 32))

(declare-const |goto_symex::guard?0!0&0#24| (_ BitVec 1))

(declare-const |c:simple_2-1.c@432@F@main@x?1!0&0#25| (_ BitVec 32))

(declare-const |goto_symex::guard?0!0&0#25| (_ BitVec 1))

(declare-const |c:simple_2-1.c@432@F@main@x?1!0&0#26| (_ BitVec 32))

(declare-const |goto_symex::guard?0!0&0#26| (_ BitVec 1))

(declare-const |execution_statet::guard_exec?0!0| (_ BitVec 1))

(declare-const |c:simple_2-1.c@432@F@main@x?1!0&0#28| (_ BitVec 32))

(declare-const |c:simple_2-1.c@432@F@main@x?1!0&0#29| (_ BitVec 32))

(declare-const |c:simple_2-1.c@432@F@main@x?1!0&0#30| (_ BitVec 32))

(declare-const |c:simple_2-1.c@432@F@main@x?1!0&0#31| (_ BitVec 32))

(declare-const |c:simple_2-1.c@432@F@main@x?1!0&0#32| (_ BitVec 32))

(declare-const |c:simple_2-1.c@432@F@main@x?1!0&0#33| (_ BitVec 32))

(declare-const |c:simple_2-1.c@432@F@main@x?1!0&0#34| (_ BitVec 32))

(declare-const |c:simple_2-1.c@432@F@main@x?1!0&0#35| (_ BitVec 32))

(declare-const |c:simple_2-1.c@432@F@main@x?1!0&0#36| (_ BitVec 32))

(declare-const |c:simple_2-1.c@432@F@main@x?1!0&0#37| (_ BitVec 32))

(declare-const |c:simple_2-1.c@432@F@main@x?1!0&0#38| (_ BitVec 32))

(declare-const |c:simple_2-1.c@432@F@main@x?1!0&0#39| (_ BitVec 32))

(declare-const |c:simple_2-1.c@432@F@main@x?1!0&0#40| (_ BitVec 32))

(declare-const |c:simple_2-1.c@432@F@main@x?1!0&0#41| (_ BitVec 32))

(declare-const |c:simple_2-1.c@432@F@main@x?1!0&0#42| (_ BitVec 32))

(declare-const |c:simple_2-1.c@432@F@main@x?1!0&0#43| (_ BitVec 32))

(declare-const |c:simple_2-1.c@432@F@main@x?1!0&0#44| (_ BitVec 32))

(declare-const |c:simple_2-1.c@432@F@main@x?1!0&0#45| (_ BitVec 32))

(declare-const |c:simple_2-1.c@432@F@main@x?1!0&0#46| (_ BitVec 32))

(declare-const |c:simple_2-1.c@432@F@main@x?1!0&0#47| (_ BitVec 32))

(declare-const |c:simple_2-1.c@432@F@main@x?1!0&0#48| (_ BitVec 32))

(declare-const |c:simple_2-1.c@432@F@main@x?1!0&0#49| (_ BitVec 32))

(declare-const |c:simple_2-1.c@432@F@main@x?1!0&0#50| (_ BitVec 32))

(declare-const |c:simple_2-1.c@432@F@main@x?1!0&0#51| (_ BitVec 32))

(declare-const |c:simple_2-1.c@432@F@main@x?1!0&0#52| (_ BitVec 32))

(declare-const |c:simple_2-1.c@432@F@main@x?1!0&0#53| (_ BitVec 32))

(declare-const |c:simple_2-1.c@331@F@__VERIFIER_assert@cond?1!0&0#1| (_ BitVec 32))

(declare-const |goto_symex::guard?0!0&0#27| (_ BitVec 1))

(assert 

 (= __ESBMC_ptr_obj_start_0 #b0000000000000000000000000000000000000000000000000000000000000000))

(assert 

 (= #b0000000000000000000000000000000000000000000000000000000000000000 __ESBMC_ptr_obj_end_0))

(assert 

 (= __ESBMC_ptr_obj_start_1 #b0000000000000000000000000000000000000000000000000000000000000001))

(assert 

 (= #b1111111111111111111111111111111111111111111111111111111111111111 __ESBMC_ptr_obj_end_1))

(assert 

 (= __ESBMC_ptr_obj_end_0 |smt_conv::__ESBMC_ptr_addr_range_0..end0|))

(assert 

 (= __ESBMC_ptr_obj_start_0 |smt_conv::__ESBMC_ptr_addr_range_0..start0|))

(assert 

 (= __ESBMC_ptr_obj_end_1 |smt_conv::__ESBMC_ptr_addr_range_1..end0|))

(assert 

 (= __ESBMC_ptr_obj_start_1 |smt_conv::__ESBMC_ptr_addr_range_1..start0|))

(assert 

 (= |smt_conv::smt_conv::collate_array_vals::3..end0| |smt_conv::smt_conv::collate_array_vals::4..end0|))

(assert 

 (= |smt_conv::smt_conv::collate_array_vals::3..start0| |smt_conv::smt_conv::collate_array_vals::4..start0|))

(assert 

 (= __ESBMC_ptr_obj_end_0 |smt_conv::smt_conv::collate_array_vals::7..end0|))

(assert 

 (= __ESBMC_ptr_obj_start_0 |smt_conv::smt_conv::collate_array_vals::7..start0|))

(assert 

 (= |c:@F@main::$tmp::return_value$___VERIFIER_nondet_uint$1?1!0&0#1| |nondet$symex::nondet99|))

(assert 

 (= |c:@F@main::$tmp::return_value$___VERIFIER_nondet_uint$1?1!0&0#1| |c:simple_2-1.c@432@F@main@x?1!0&0#1|))

(assert 

 (= |goto_symex::guard?0!0&0#1| 

  (ite 

   (bvult |c:simple_2-1.c@432@F@main@x?1!0&0#1| #b00001111111111111111111111111111) #b1 #b0)))

(assert 

 (= |c:simple_2-1.c@432@F@main@x?1!0&0#2| 

  (bvadd |c:simple_2-1.c@432@F@main@x?1!0&0#1| #b00000000000000000000000000000001)))

(assert 

 (= |goto_symex::guard?0!0&0#2| 

  (ite 

   (bvult |c:simple_2-1.c@432@F@main@x?1!0&0#2| #b00001111111111111111111111111111) #b1 #b0)))

(assert 

 (= |c:simple_2-1.c@432@F@main@x?1!0&0#3| 

  (bvadd |c:simple_2-1.c@432@F@main@x?1!0&0#2| #b00000000000000000000000000000001)))

(assert 

 (= |goto_symex::guard?0!0&0#3| 

  (ite 

   (bvult |c:simple_2-1.c@432@F@main@x?1!0&0#3| #b00001111111111111111111111111111) #b1 #b0)))

(assert 

 (= |c:simple_2-1.c@432@F@main@x?1!0&0#4| 

  (bvadd #b00000000000000000000000000000001 |c:simple_2-1.c@432@F@main@x?1!0&0#3|)))

(assert 

 (= |goto_symex::guard?0!0&0#4| 

  (ite 

   (bvult |c:simple_2-1.c@432@F@main@x?1!0&0#4| #b00001111111111111111111111111111) #b1 #b0)))

(assert 

 (= |c:simple_2-1.c@432@F@main@x?1!0&0#5| 

  (bvadd #b00000000000000000000000000000001 |c:simple_2-1.c@432@F@main@x?1!0&0#4|)))

(assert 

 (= |goto_symex::guard?0!0&0#5| 

  (ite 

   (bvult |c:simple_2-1.c@432@F@main@x?1!0&0#5| #b00001111111111111111111111111111) #b1 #b0)))

(assert 

 (= |c:simple_2-1.c@432@F@main@x?1!0&0#6| 

  (bvadd #b00000000000000000000000000000001 |c:simple_2-1.c@432@F@main@x?1!0&0#5|)))

(assert 

 (= |goto_symex::guard?0!0&0#6| 

  (ite 

   (bvult |c:simple_2-1.c@432@F@main@x?1!0&0#6| #b00001111111111111111111111111111) #b1 #b0)))

(assert 

 (= |c:simple_2-1.c@432@F@main@x?1!0&0#7| 

  (bvadd #b00000000000000000000000000000001 |c:simple_2-1.c@432@F@main@x?1!0&0#6|)))

(assert 

 (= |goto_symex::guard?0!0&0#7| 

  (ite 

   (bvult |c:simple_2-1.c@432@F@main@x?1!0&0#7| #b00001111111111111111111111111111) #b1 #b0)))

(assert 

 (= |c:simple_2-1.c@432@F@main@x?1!0&0#8| 

  (bvadd #b00000000000000000000000000000001 |c:simple_2-1.c@432@F@main@x?1!0&0#7|)))

(assert 

 (= |goto_symex::guard?0!0&0#8| 

  (ite 

   (bvult |c:simple_2-1.c@432@F@main@x?1!0&0#8| #b00001111111111111111111111111111) #b1 #b0)))

(assert 

 (= |c:simple_2-1.c@432@F@main@x?1!0&0#9| 

  (bvadd #b00000000000000000000000000000001 |c:simple_2-1.c@432@F@main@x?1!0&0#8|)))

(assert 

 (= |goto_symex::guard?0!0&0#9| 

  (ite 

   (bvult |c:simple_2-1.c@432@F@main@x?1!0&0#9| #b00001111111111111111111111111111) #b1 #b0)))

(assert 

 (= |c:simple_2-1.c@432@F@main@x?1!0&0#10| 

  (bvadd #b00000000000000000000000000000001 |c:simple_2-1.c@432@F@main@x?1!0&0#9|)))

(assert 

 (= |goto_symex::guard?0!0&0#10| 

  (ite 

   (bvult |c:simple_2-1.c@432@F@main@x?1!0&0#10| #b00001111111111111111111111111111) #b1 #b0)))

(assert 

 (= |c:simple_2-1.c@432@F@main@x?1!0&0#11| 

  (bvadd #b00000000000000000000000000000001 |c:simple_2-1.c@432@F@main@x?1!0&0#10|)))

(assert 

 (= |goto_symex::guard?0!0&0#11| 

  (ite 

   (bvult |c:simple_2-1.c@432@F@main@x?1!0&0#11| #b00001111111111111111111111111111) #b1 #b0)))

(assert 

 (= |c:simple_2-1.c@432@F@main@x?1!0&0#12| 

  (bvadd #b00000000000000000000000000000001 |c:simple_2-1.c@432@F@main@x?1!0&0#11|)))

(assert 

 (= |goto_symex::guard?0!0&0#12| 

  (ite 

   (bvult |c:simple_2-1.c@432@F@main@x?1!0&0#12| #b00001111111111111111111111111111) #b1 #b0)))

(assert 

 (= |c:simple_2-1.c@432@F@main@x?1!0&0#13| 

  (bvadd #b00000000000000000000000000000001 |c:simple_2-1.c@432@F@main@x?1!0&0#12|)))

(assert 

 (= |goto_symex::guard?0!0&0#13| 

  (ite 

   (bvult |c:simple_2-1.c@432@F@main@x?1!0&0#13| #b00001111111111111111111111111111) #b1 #b0)))

(assert 

 (= |c:simple_2-1.c@432@F@main@x?1!0&0#14| 

  (bvadd #b00000000000000000000000000000001 |c:simple_2-1.c@432@F@main@x?1!0&0#13|)))

(assert 

 (= |goto_symex::guard?0!0&0#14| 

  (ite 

   (bvult |c:simple_2-1.c@432@F@main@x?1!0&0#14| #b00001111111111111111111111111111) #b1 #b0)))

(assert 

 (= |c:simple_2-1.c@432@F@main@x?1!0&0#15| 

  (bvadd #b00000000000000000000000000000001 |c:simple_2-1.c@432@F@main@x?1!0&0#14|)))

(assert 

 (= |goto_symex::guard?0!0&0#15| 

  (ite 

   (bvult |c:simple_2-1.c@432@F@main@x?1!0&0#15| #b00001111111111111111111111111111) #b1 #b0)))

(assert 

 (= |c:simple_2-1.c@432@F@main@x?1!0&0#16| 

  (bvadd #b00000000000000000000000000000001 |c:simple_2-1.c@432@F@main@x?1!0&0#15|)))

(assert 

 (= |goto_symex::guard?0!0&0#16| 

  (ite 

   (bvult |c:simple_2-1.c@432@F@main@x?1!0&0#16| #b00001111111111111111111111111111) #b1 #b0)))

(assert 

 (= |c:simple_2-1.c@432@F@main@x?1!0&0#17| 

  (bvadd #b00000000000000000000000000000001 |c:simple_2-1.c@432@F@main@x?1!0&0#16|)))

(assert 

 (= |goto_symex::guard?0!0&0#17| 

  (ite 

   (bvult |c:simple_2-1.c@432@F@main@x?1!0&0#17| #b00001111111111111111111111111111) #b1 #b0)))

(assert 

 (= |c:simple_2-1.c@432@F@main@x?1!0&0#18| 

  (bvadd #b00000000000000000000000000000001 |c:simple_2-1.c@432@F@main@x?1!0&0#17|)))

(assert 

 (= |goto_symex::guard?0!0&0#18| 

  (ite 

   (bvult |c:simple_2-1.c@432@F@main@x?1!0&0#18| #b00001111111111111111111111111111) #b1 #b0)))

(assert 

 (= |c:simple_2-1.c@432@F@main@x?1!0&0#19| 

  (bvadd #b00000000000000000000000000000001 |c:simple_2-1.c@432@F@main@x?1!0&0#18|)))

(assert 

 (= |goto_symex::guard?0!0&0#19| 

  (ite 

   (bvult |c:simple_2-1.c@432@F@main@x?1!0&0#19| #b00001111111111111111111111111111) #b1 #b0)))

(assert 

 (= |c:simple_2-1.c@432@F@main@x?1!0&0#20| 

  (bvadd #b00000000000000000000000000000001 |c:simple_2-1.c@432@F@main@x?1!0&0#19|)))

(assert 

 (= |goto_symex::guard?0!0&0#20| 

  (ite 

   (bvult |c:simple_2-1.c@432@F@main@x?1!0&0#20| #b00001111111111111111111111111111) #b1 #b0)))

(assert 

 (= |c:simple_2-1.c@432@F@main@x?1!0&0#21| 

  (bvadd #b00000000000000000000000000000001 |c:simple_2-1.c@432@F@main@x?1!0&0#20|)))

(assert 

 (= |goto_symex::guard?0!0&0#21| 

  (ite 

   (bvult |c:simple_2-1.c@432@F@main@x?1!0&0#21| #b00001111111111111111111111111111) #b1 #b0)))

(assert 

 (= |c:simple_2-1.c@432@F@main@x?1!0&0#22| 

  (bvadd #b00000000000000000000000000000001 |c:simple_2-1.c@432@F@main@x?1!0&0#21|)))

(assert 

 (= |goto_symex::guard?0!0&0#22| 

  (ite 

   (bvult |c:simple_2-1.c@432@F@main@x?1!0&0#22| #b00001111111111111111111111111111) #b1 #b0)))

(assert 

 (= |c:simple_2-1.c@432@F@main@x?1!0&0#23| 

  (bvadd #b00000000000000000000000000000001 |c:simple_2-1.c@432@F@main@x?1!0&0#22|)))

(assert 

 (= |goto_symex::guard?0!0&0#23| 

  (ite 

   (bvult |c:simple_2-1.c@432@F@main@x?1!0&0#23| #b00001111111111111111111111111111) #b1 #b0)))

(assert 

 (= |c:simple_2-1.c@432@F@main@x?1!0&0#24| 

  (bvadd #b00000000000000000000000000000001 |c:simple_2-1.c@432@F@main@x?1!0&0#23|)))

(assert 

 (= |goto_symex::guard?0!0&0#24| 

  (ite 

   (bvult |c:simple_2-1.c@432@F@main@x?1!0&0#24| #b00001111111111111111111111111111) #b1 #b0)))

(assert 

 (= |c:simple_2-1.c@432@F@main@x?1!0&0#25| 

  (bvadd #b00000000000000000000000000000001 |c:simple_2-1.c@432@F@main@x?1!0&0#24|)))

(assert 

 (= |goto_symex::guard?0!0&0#25| 

  (ite 

   (bvult |c:simple_2-1.c@432@F@main@x?1!0&0#25| #b00001111111111111111111111111111) #b1 #b0)))

(assert 

 (= |c:simple_2-1.c@432@F@main@x?1!0&0#26| 

  (bvadd #b00000000000000000000000000000001 |c:simple_2-1.c@432@F@main@x?1!0&0#25|)))

(assert 

 (= |goto_symex::guard?0!0&0#26| 

  (ite 

   (bvult |c:simple_2-1.c@432@F@main@x?1!0&0#26| #b00001111111111111111111111111111) #b1 #b0)))

(assert 

 (= |c:simple_2-1.c@432@F@main@x?1!0&0#26| |c:simple_2-1.c@432@F@main@x?1!0&0#28|))

(assert 

 (= |c:simple_2-1.c@432@F@main@x?1!0&0#29| 

  (ite 

   (= #b1 |goto_symex::guard?0!0&0#25|) |c:simple_2-1.c@432@F@main@x?1!0&0#28| |c:simple_2-1.c@432@F@main@x?1!0&0#25|)))

(assert 

 (= |c:simple_2-1.c@432@F@main@x?1!0&0#30| 

  (ite 

   (= #b1 |goto_symex::guard?0!0&0#24|) |c:simple_2-1.c@432@F@main@x?1!0&0#29| |c:simple_2-1.c@432@F@main@x?1!0&0#24|)))

(assert 

 (= |c:simple_2-1.c@432@F@main@x?1!0&0#31| 

  (ite 

   (= #b1 |goto_symex::guard?0!0&0#23|) |c:simple_2-1.c@432@F@main@x?1!0&0#30| |c:simple_2-1.c@432@F@main@x?1!0&0#23|)))

(assert 

 (= |c:simple_2-1.c@432@F@main@x?1!0&0#32| 

  (ite 

   (= #b1 |goto_symex::guard?0!0&0#22|) |c:simple_2-1.c@432@F@main@x?1!0&0#31| |c:simple_2-1.c@432@F@main@x?1!0&0#22|)))

(assert 

 (= |c:simple_2-1.c@432@F@main@x?1!0&0#33| 

  (ite 

   (= #b1 |goto_symex::guard?0!0&0#21|) |c:simple_2-1.c@432@F@main@x?1!0&0#32| |c:simple_2-1.c@432@F@main@x?1!0&0#21|)))

(assert 

 (= |c:simple_2-1.c@432@F@main@x?1!0&0#34| 

  (ite 

   (= #b1 |goto_symex::guard?0!0&0#20|) |c:simple_2-1.c@432@F@main@x?1!0&0#33| |c:simple_2-1.c@432@F@main@x?1!0&0#20|)))

(assert 

 (= |c:simple_2-1.c@432@F@main@x?1!0&0#35| 

  (ite 

   (= #b1 |goto_symex::guard?0!0&0#19|) |c:simple_2-1.c@432@F@main@x?1!0&0#34| |c:simple_2-1.c@432@F@main@x?1!0&0#19|)))

(assert 

 (= |c:simple_2-1.c@432@F@main@x?1!0&0#36| 

  (ite 

   (= #b1 |goto_symex::guard?0!0&0#18|) |c:simple_2-1.c@432@F@main@x?1!0&0#35| |c:simple_2-1.c@432@F@main@x?1!0&0#18|)))

(assert 

 (= |c:simple_2-1.c@432@F@main@x?1!0&0#37| 

  (ite 

   (= #b1 |goto_symex::guard?0!0&0#17|) |c:simple_2-1.c@432@F@main@x?1!0&0#36| |c:simple_2-1.c@432@F@main@x?1!0&0#17|)))

(assert 

 (= |c:simple_2-1.c@432@F@main@x?1!0&0#38| 

  (ite 

   (= #b1 |goto_symex::guard?0!0&0#16|) |c:simple_2-1.c@432@F@main@x?1!0&0#37| |c:simple_2-1.c@432@F@main@x?1!0&0#16|)))

(assert 

 (= |c:simple_2-1.c@432@F@main@x?1!0&0#39| 

  (ite 

   (= #b1 |goto_symex::guard?0!0&0#15|) |c:simple_2-1.c@432@F@main@x?1!0&0#38| |c:simple_2-1.c@432@F@main@x?1!0&0#15|)))

(assert 

 (= |c:simple_2-1.c@432@F@main@x?1!0&0#40| 

  (ite 

   (= #b1 |goto_symex::guard?0!0&0#14|) |c:simple_2-1.c@432@F@main@x?1!0&0#39| |c:simple_2-1.c@432@F@main@x?1!0&0#14|)))

(assert 

 (= |c:simple_2-1.c@432@F@main@x?1!0&0#41| 

  (ite 

   (= #b1 |goto_symex::guard?0!0&0#13|) |c:simple_2-1.c@432@F@main@x?1!0&0#40| |c:simple_2-1.c@432@F@main@x?1!0&0#13|)))

(assert 

 (= |c:simple_2-1.c@432@F@main@x?1!0&0#42| 

  (ite 

   (= #b1 |goto_symex::guard?0!0&0#12|) |c:simple_2-1.c@432@F@main@x?1!0&0#41| |c:simple_2-1.c@432@F@main@x?1!0&0#12|)))

(assert 

 (= |c:simple_2-1.c@432@F@main@x?1!0&0#43| 

  (ite 

   (= #b1 |goto_symex::guard?0!0&0#11|) |c:simple_2-1.c@432@F@main@x?1!0&0#42| |c:simple_2-1.c@432@F@main@x?1!0&0#11|)))

(assert 

 (= |c:simple_2-1.c@432@F@main@x?1!0&0#44| 

  (ite 

   (= #b1 |goto_symex::guard?0!0&0#10|) |c:simple_2-1.c@432@F@main@x?1!0&0#43| |c:simple_2-1.c@432@F@main@x?1!0&0#10|)))

(assert 

 (= |c:simple_2-1.c@432@F@main@x?1!0&0#45| 

  (ite 

   (= #b1 |goto_symex::guard?0!0&0#9|) |c:simple_2-1.c@432@F@main@x?1!0&0#44| |c:simple_2-1.c@432@F@main@x?1!0&0#9|)))

(assert 

 (= |c:simple_2-1.c@432@F@main@x?1!0&0#46| 

  (ite 

   (= #b1 |goto_symex::guard?0!0&0#8|) |c:simple_2-1.c@432@F@main@x?1!0&0#45| |c:simple_2-1.c@432@F@main@x?1!0&0#8|)))

(assert 

 (= |c:simple_2-1.c@432@F@main@x?1!0&0#47| 

  (ite 

   (= #b1 |goto_symex::guard?0!0&0#7|) |c:simple_2-1.c@432@F@main@x?1!0&0#46| |c:simple_2-1.c@432@F@main@x?1!0&0#7|)))

(assert 

 (= |c:simple_2-1.c@432@F@main@x?1!0&0#48| 

  (ite 

   (= #b1 |goto_symex::guard?0!0&0#6|) |c:simple_2-1.c@432@F@main@x?1!0&0#47| |c:simple_2-1.c@432@F@main@x?1!0&0#6|)))

(assert 

 (= |c:simple_2-1.c@432@F@main@x?1!0&0#49| 

  (ite 

   (= #b1 |goto_symex::guard?0!0&0#5|) |c:simple_2-1.c@432@F@main@x?1!0&0#48| |c:simple_2-1.c@432@F@main@x?1!0&0#5|)))

(assert 

 (= |c:simple_2-1.c@432@F@main@x?1!0&0#50| 

  (ite 

   (= #b1 |goto_symex::guard?0!0&0#4|) |c:simple_2-1.c@432@F@main@x?1!0&0#49| |c:simple_2-1.c@432@F@main@x?1!0&0#4|)))

(assert 

 (= |c:simple_2-1.c@432@F@main@x?1!0&0#51| 

  (ite 

   (= #b1 |goto_symex::guard?0!0&0#3|) |c:simple_2-1.c@432@F@main@x?1!0&0#50| |c:simple_2-1.c@432@F@main@x?1!0&0#3|)))

(assert 

 (= |c:simple_2-1.c@432@F@main@x?1!0&0#52| 

  (ite 

   (= #b1 |goto_symex::guard?0!0&0#2|) |c:simple_2-1.c@432@F@main@x?1!0&0#51| |c:simple_2-1.c@432@F@main@x?1!0&0#2|)))

(assert 

 (= |c:simple_2-1.c@432@F@main@x?1!0&0#53| 

  (ite 

   (= #b1 |goto_symex::guard?0!0&0#1|) |c:simple_2-1.c@432@F@main@x?1!0&0#52| |c:simple_2-1.c@432@F@main@x?1!0&0#1|)))

(assert 

 (= |c:simple_2-1.c@331@F@__VERIFIER_assert@cond?1!0&0#1| 

  (ite 

   (bvult |c:simple_2-1.c@432@F@main@x?1!0&0#53| #b00001111111111111111111111111111) #b00000000000000000000000000000000 #b00000000000000000000000000000001)))

(assert 

 (= |goto_symex::guard?0!0&0#27| 

  (ite 

   (= #b00000000000000000000000000000000 |c:simple_2-1.c@331@F@__VERIFIER_assert@cond?1!0&0#1|) #b1 #b0)))

(assert (= |execution_statet::guard_exec?0!0| #b1))

(assert (= |goto_symex::guard?0!0&0#26| #b1))

(assert (= |goto_symex::guard?0!0&0#25| #b1))

(assert (= |goto_symex::guard?0!0&0#24| #b1))

(assert (= |goto_symex::guard?0!0&0#23| #b1))

(assert (= |goto_symex::guard?0!0&0#22| #b1))

(assert (= |goto_symex::guard?0!0&0#21| #b1))

(assert (= |goto_symex::guard?0!0&0#20| #b1))

(assert (= |goto_symex::guard?0!0&0#19| #b1))

(assert (= |goto_symex::guard?0!0&0#18| #b1))

(assert (= |goto_symex::guard?0!0&0#17| #b1))

(assert (= |goto_symex::guard?0!0&0#16| #b1))

(assert (= |goto_symex::guard?0!0&0#15| #b1))

(assert (= |goto_symex::guard?0!0&0#14| #b1))

(assert (= |goto_symex::guard?0!0&0#13| #b1))

(assert (= |goto_symex::guard?0!0&0#12| #b1))

(assert (= |goto_symex::guard?0!0&0#11| #b1))

(assert (= |goto_symex::guard?0!0&0#10| #b1))

(assert (= |goto_symex::guard?0!0&0#9| #b1))

(assert (= |goto_symex::guard?0!0&0#8| #b1))

(assert (= |goto_symex::guard?0!0&0#7| #b1))

(assert (= |goto_symex::guard?0!0&0#6| #b1))

(assert (= |goto_symex::guard?0!0&0#5| #b1))

(assert (= |goto_symex::guard?0!0&0#4| #b1))

(assert (= |goto_symex::guard?0!0&0#3| #b1))

(assert (= |goto_symex::guard?0!0&0#2| #b1))

(assert (= |goto_symex::guard?0!0&0#1| #b1))

(check-sat)

(exit)
